Gurobi Optimizer version 9.1.2 build v9.1.2rc0 (linux64)
Thread count: 36 physical cores, 72 logical processors, using up to 32 threads
Optimize a model with 12 rows, 57 columns and 590 nonzeros
Model fingerprint: 0xf32eec78
Model has 47 quadratic constraints
Coefficient statistics:
  Matrix range     [2e-05, 3e+00]
  QMatrix range    [1e+00, 1e+00]
  QLMatrix range   [1e+00, 1e+00]
  Objective range  [8e-03, 7e-01]
  Bounds range     [1e+00, 1e+00]
  RHS range        [1e+00, 1e+00]
Presolve removed 9 rows and 0 columns

Continuous model is non-convex -- solving as a MIP.

Presolve removed 9 rows and 0 columns
Presolve time: 0.00s
Presolved: 189 rows, 57 columns, 443 nonzeros
Presolved model has 47 bilinear constraint(s)
Variable types: 57 continuous, 0 integer (0 binary)

Root relaxation: objective -1.743721e+00, 44 iterations, 0.00 seconds

    Nodes    |    Current Node    |     Objective Bounds      |     Work
 Expl Unexpl |  Obj  Depth IntInf | Incumbent    BestBd   Gap | It/Node Time

     0     0   -1.74372    0   38          -   -1.74372      -     -    0s
H    0     0                       0.6147548   -1.74372   384%     -    0s
     0     0   -1.64739    0    1    0.61475   -1.64739   368%     -    0s
H    0     0                      -1.6450460   -1.64739  0.14%     -    0s
     0     0     cutoff    0        -1.64505   -1.64505  0.00%     -    0s

Cutting planes:
  RLT: 25
  BQP: 3

Explored 1 nodes (76 simplex iterations) in 0.01 seconds
Thread count was 32 (of 72 available processors)

Solution count 2: -1.64505 0.614755 
No other solutions better than -1.64505

Optimal solution found (tolerance 1.00e-04)
Best objective -1.645045978473e+00, best bound -1.645045978473e+00, gap 0.0000%

User-callback calls 78, time in user-callback 0.00 sec
Gurobi Optimizer version 9.1.2 build v9.1.2rc0 (linux64)
Thread count: 36 physical cores, 72 logical processors, using up to 32 threads
Optimize a model with 60 rows, 300 columns and 15500 nonzeros
Model fingerprint: 0xcdbd5330
Model has 250 quadratic constraints
Coefficient statistics:
  Matrix range     [1e-06, 4e+00]
  QMatrix range    [1e+00, 1e+00]
  QLMatrix range   [1e+00, 1e+00]
  Objective range  [3e-04, 2e+00]
  Bounds range     [1e+00, 1e+00]
  RHS range        [1e+00, 1e+00]
Presolve removed 11 rows and 0 columns

Continuous model is non-convex -- solving as a MIP.

Presolve removed 11 rows and 0 columns
Presolve time: 0.01s
Presolved: 1049 rows, 300 columns, 14161 nonzeros
Presolved model has 250 bilinear constraint(s)
Variable types: 300 continuous, 0 integer (0 binary)

Root relaxation: objective -2.991670e+01, 367 iterations, 0.02 seconds

    Nodes    |    Current Node    |     Objective Bounds      |     Work
 Expl Unexpl |  Obj  Depth IntInf | Incumbent    BestBd   Gap | It/Node Time

     0     0  -29.91670    0  209          -  -29.91670      -     -    0s
     0     0  -27.04636    0  211          -  -27.04636      -     -    0s
     0     0  -26.46862    0  151          -  -26.46862      -     -    0s
     0     0  -26.36508    0  129          -  -26.36508      -     -    0s
     0     0  -26.36005    0  147          -  -26.36005      -     -    0s
     0     0  -26.35400    0  161          -  -26.35400      -     -    0s
     0     0  -26.35323    0  151          -  -26.35323      -     -    0s
     0     0  -26.35242    0  161          -  -26.35242      -     -    0s
H    0     0                     -19.1033148  -26.35242  37.9%     -    0s
H    0     0                     -19.8482610  -26.35242  32.8%     -    0s
H    0     0                     -20.0637699  -26.35242  31.3%     -    0s
     0     2  -26.35242    0  161  -20.06377  -26.35242  31.3%     -    0s
* 1314  1223              75     -21.2512801  -24.61655  15.8%  68.5    1s
* 1701  1538              62     -22.4740092  -24.61655  9.53%  63.6    1s
* 1943  1588              65     -22.4740099  -24.40746  8.60%  61.0    2s
* 2176  1843              56     -23.1672827  -24.40746  5.35%  60.3    2s
* 2178  1843              57     -23.1672839  -24.40746  5.35%  60.3    2s
* 5197  1861              51     -23.1678811  -23.91184  3.21%  61.4    3s
* 5338  1913              79     -23.1825257  -23.72056  2.32%  60.7    3s
* 5548  1913              78     -23.2100708  -23.72056  2.20%  59.5    3s
H 5897   778                     -23.2100714  -23.61366  1.74%  58.7    4s
  7014   730     cutoff   24       -23.21007  -23.61366  1.74%  62.6    5s
* 8079   498              84     -23.2775608  -23.61366  1.44%  64.1    5s
* 8974   522              64     -23.2775675  -23.61366  1.44%  64.1    5s
*12463   662              81     -23.2775695  -23.58555  1.32%  63.5    7s
*12701   662              85     -23.2776157  -23.58555  1.32%  62.8    7s
*12706   662              85     -23.2776270  -23.58555  1.32%  62.8    7s
*12955  1011              84     -23.2777537  -23.58555  1.32%  62.1    7s
*13385  1464              98     -23.3243575  -23.50062  0.76%  60.8    7s
*15274  2300              81     -23.3348990  -23.45293  0.51%  56.1    7s
*15503  2300              85     -23.3429960  -23.45293  0.47%  55.5    7s
*16729  2168              78     -23.3529271  -23.45143  0.42%  52.7    8s
*17176  2207              87     -23.3619161  -23.44967  0.38%  51.6    8s
*17386  2207              89     -23.3659806  -23.44967  0.36%  51.1    8s
*17388  2207              88     -23.3659809  -23.44967  0.36%  51.1    8s
*18513  1964              75     -23.3690244  -23.41888  0.21%  49.2    8s
*18516  1964              77     -23.3690275  -23.41888  0.21%  49.2    8s
*18520  1964              79     -23.3690275  -23.41888  0.21%  49.2    8s
*18521  1964              79     -23.3690276  -23.41888  0.21%  49.2    8s
*19518  1844              68     -23.3691267  -23.41094  0.18%  47.4    8s
*19523  1844              70     -23.3691478  -23.41094  0.18%  47.4    8s
*19530  1844              73     -23.3691481  -23.41094  0.18%  47.4    8s
*19558  1844             120     -23.3701882  -23.41094  0.17%  47.3    8s
*19562  1844             121     -23.3701957  -23.41094  0.17%  47.3    8s
*19569  1844             120     -23.3702244  -23.41094  0.17%  47.3    8s
*20623  1903              69     -23.3704872  -23.41094  0.17%  45.7    8s
*20624  1903              69     -23.3705040  -23.41094  0.17%  45.7    8s
*20628  1903              69     -23.3705174  -23.41094  0.17%  45.6    8s
*20629  1903              69     -23.3705186  -23.41094  0.17%  45.6    8s
*21240  2004              66     -23.3705355  -23.40821  0.16%  44.7    8s
*21242  2004              67     -23.3705394  -23.40821  0.16%  44.7    8s
*21244  2004              68     -23.3705395  -23.40821  0.16%  44.7    8s
*21245  2004              68     -23.3705404  -23.40821  0.16%  44.7    8s
*21561  2004              74     -23.3707775  -23.40821  0.16%  44.3    8s
*21562  2004              74     -23.3707779  -23.40821  0.16%  44.3    8s
*21774  2004              87     -23.3717059  -23.40821  0.16%  44.0    8s
*21775  2004              87     -23.3717065  -23.40821  0.16%  44.0    8s
*22294  2051              71     -23.3717417  -23.40541  0.14%  43.2    9s
*22299  2051              71     -23.3717445  -23.40541  0.14%  43.2    9s
*22807  2051              74     -23.3718279  -23.40541  0.14%  42.5    9s
*22812  2051              74     -23.3718280  -23.40541  0.14%  42.5    9s
*23156  2051              76     -23.3719845  -23.40541  0.14%  42.1    9s
*23530  2010              81     -23.3723412  -23.40291  0.13%  41.6    9s
*23819  2010              64     -23.3728708  -23.40291  0.13%  41.2    9s
*24539  2008              76     -23.3730646  -23.39880  0.11%  40.4    9s
*24540  2008              76     -23.3730646  -23.39880  0.11%  40.4    9s
*24683  2008              95     -23.3732100  -23.39880  0.11%  40.2    9s
*24684  2008              95     -23.3732274  -23.39880  0.11%  40.2    9s
*24686  2008              95     -23.3732630  -23.39880  0.11%  40.2    9s
*24687  2008              95     -23.3732637  -23.39880  0.11%  40.2    9s
*24689  2008              94     -23.3732994  -23.39880  0.11%  40.2    9s
*25067  2008              83     -23.3735267  -23.39880  0.11%  39.7    9s
*25070  2008              83     -23.3735688  -23.39880  0.11%  39.7    9s
*25071  2008              83     -23.3735703  -23.39880  0.11%  39.7    9s
*25687  1977              92     -23.3741520  -23.39094  0.07%  39.1    9s
*25688  1977              92     -23.3741538  -23.39094  0.07%  39.1    9s
*25689  1977              91     -23.3741760  -23.39094  0.07%  39.1    9s
*25691  1977              91     -23.3741902  -23.39094  0.07%  39.1    9s
*25888  1977              95     -23.3742692  -23.38870  0.06%  38.9    9s
*25932  1977              68     -23.3748031  -23.38870  0.06%  38.9    9s
*25960  1977              98     -23.3761657  -23.38870  0.05%  38.8    9s
*26086  1977             100     -23.3761688  -23.38870  0.05%  38.7    9s
*26088  1977             100     -23.3761691  -23.38870  0.05%  38.7    9s
*26089  1977             100     -23.3761692  -23.38870  0.05%  38.7    9s
*26941  1820              76     -23.3768211  -23.38591  0.04%  37.8    9s
*26947  1820              77     -23.3768229  -23.38591  0.04%  37.8    9s
 27924  1707     cutoff   51       -23.37682  -23.38449  0.03%  36.8   10s
*27953  1707              75     -23.3769039  -23.38449  0.03%  36.8   10s
*29307  1658              73     -23.3769298  -23.38306  0.03%  35.5   10s
*29882  1658              79     -23.3769604  -23.38205  0.02%  35.0   10s
*29883  1658              79     -23.3769640  -23.38205  0.02%  35.0   10s
*29895  1658              79     -23.3769705  -23.38205  0.02%  35.0   10s
*29896  1658              79     -23.3769750  -23.38205  0.02%  35.0   10s
*29901  1658              78     -23.3769753  -23.38205  0.02%  34.9   10s
*31293  1744              75     -23.3770531  -23.38086  0.02%  33.7   10s
*31294  1744              75     -23.3771292  -23.38086  0.02%  33.7   10s
*31298  1744              76     -23.3771531  -23.38086  0.02%  33.7   10s
*32446  1742              84     -23.3772736  -23.37986  0.01%  32.7   10s
*32447  1742              84     -23.3772739  -23.37986  0.01%  32.7   10s

Explored 33659 nodes (1070998 simplex iterations) in 10.67 seconds
Thread count was 32 (of 72 available processors)

Solution count 10: -23.3773 -23.3773 -23.3772 ... -23.377

Optimal solution found (tolerance 1.00e-04)
Best objective -2.337727222989e+01, best bound -2.337922864084e+01, gap 0.0084%

User-callback calls 68524, time in user-callback 0.01 sec



objective value: -23.37727222989047
objective bound: -23.379228640840413
x_opt: [0.0, 1.0, 1.0, 1.0, 0.0, 1.0, 1.0, 1.0, 0.33168599347738165, 0.0, 0.0, 0.0, 0.0, 0.978805161259843, 1.0, 1.0, 0.20051291785355765, 1.0, 0.0, 0.0, 0.0, 1.0, 1.0, 1.0, 0.0, 0.0, 1.0, 0.0, 0.0, 0.7382628225708188, 0.0, 1.0, 0.1908419532675754, 0.9859334239476488, 1.0, 1.0, 1.0, 0.6902813667275401, 1.0, 1.0, 0.17217985559530907, 0.21754120330828905, 0.20656289663424882, 0.16791298129494944, 1.014803296812679e-13, 0.20393936258891815, 1.0170047036472333e-13, 1.0, 1.0144235519082942e-13, 0.9968903557079055]
GUROBI solution time: 10.67283296585083

